c A SAT instance generated from a 3-CNF formula that had 24 clauses and 12 variables
p cnf 12 24
11 -5 8 0
-5 3 -7 0
-2 12 8 0
-7 4 1 0
-7 6 -11 0
-2 -8 6 0
-5 4 10 0
12 -9 4 0
-4 -10 7 0
-7 -4 5 0
1 6 10 0
9 3 1 0
-11 6 -7 0
6 -11 -1 0
-9 3 10 0
4 -6 -7 0
7 -9 -2 0
2 -8 11 0
-5 -11 -12 0
-11 6 -5 0
7 -8 10 0
-9 -2 -11 0
-9 -5 11 0
3 12 1 0
